p cnf 61 3
-1 -2 -3 -4 -5 -6 -8 -9 -12 -13 -14 -15 -17 -19 -22 -23 -24 -27 -29 -32 -33 -34 -35 -36 -37 -38 -39 -40 -41 -42 -43 -44 -45 -46 -47 -48 -50 -51 -52 -53 -54 -55 -56 -57 -58 -60 -61 -62 -63 -64 -65 -67 -71 -72 -73 -74 -75 -76 -1335 0
-1 -2 -3 -5 -6 -8 -9 -12 -13 -14 -15 -17 -19 -22 -24 -27 -29 -32 -33 -34 -35 -36 -37 -38 -39 -40 -41 -42 -43 -44 -45 -46 -47 -48 -50 -52 -55 -56 -57 -58 -60 -61 -62 -63 -64 -65 -67 -71 -72 -73 -74 -75 -76 -1335 -1500 -2603 0
-1 -2 -3 -5 -6 -8 -9 -12 -13 -14 -15 -17 -19 -22 -24 -27 -29 -32 -33 -34 -35 -36 -37 -38 -39 -40 -41 -42 -43 -44 -45 -46 -47 -48 -50 -51 -52 -55 -56 -57 -58 -60 -61 -62 -63 -64 -65 -67 -71 -72 -73 -74 -75 -76 -1335 -1500 0
